c partition 1 of 5
p cnf 24 19
-8 -7 -18 20 0
-21 23 -6 -5 0
-13 15 -10 -23 0
6 15 24 -11 0
-22 -9 -14 3 0
7 -20 -11 15 0
-16 1 -23 8 0
24 -4 -23 -1 0
7 9 -1 -6 0
22 -6 -7 -17 0
-1 -17 3 -23 0
10 6 4 15 0
-16 1 -13 -6 0
21 6 23 -19 0
-5 2 -10 -6 0
-7 11 3 -18 0
9 -1 -11 12 0
-19 15 11 -2 0
-3 21 12 4 0
